proyfinal/src/viki/013/experimentInOfficeAgust.take6.output/6ef6c48c-274a-4423-bad3-38b0f602439f.als.out
Reading from standard input... Use '--help' for help.
============================[ Problem Statistics ]=============================
|                                                                             |
|  Number of variables:         87638                                         |
|  Number of clauses:          161767                                         |
|  Parse time:                   0.03 s                                       |
|                                                                             |
============================[ Search Statistics ]==============================
| Conflicts |          ORIGINAL         |          LEARNT          | Progress |
|           |    Vars  Clauses Literals |    Limit  Clauses Lit/Cl |          |
===============================================================================
|       100 |   62798   106620   266480 |    39094      100     24 | 28.344 % |
|       250 |   62797   106576   266390 |    43003      249     37 | 28.345 % |
|       475 |   62743   106543   266302 |    47303      459     54 | 28.407 % |
|       812 |   62727   106378   265866 |    52034      767     72 | 28.425 % |
|      1318 |   62727   106312   265713 |    57237     1273     84 | 28.425 % |
|      2077 |   62708   106236   265537 |    62961     2031     80 | 28.447 % |
|      3216 |   49433    67817   170598 |    69257     2655     70 | 43.594 % |
|      4924 |   49156    66638   167761 |    76183     4330     59 | 43.910 % |
|      7486 |   48891    65709   165581 |    83801     6424     51 | 44.213 % |
|     11330 |   48400    63531   160348 |    92181    10209     45 | 44.773 % |
===============================================================================
restarts              : 56
conflicts             : 12793          (8569 /sec)
decisions             : 43411          (0.00 % random) (29079 /sec)
propagations          : 16809651       (11260047 /sec)
conflict literals     : 542325         (46.52 % deleted)
Memory used           : 29.45 MB
CPU time              : 1.49286 s

UNSATISFIABLE
